 Code   333
 Dimension, Fixed Cost
   100        3000
 Facility, Client, Transportation Cost
     1       28           2
     1       58           2
     1       69           0
     1       93           0
     1       95           4
     1       96           1
     1       97           3
     1       98           2
     1       99           0
     1      100           3
     2        6           3
     2        7           0
     2       11           4
     2       38           4
     2       39           4
     2       53           0
     2       66           3
     2       78           4
     2       79           0
     2       88           2
     3        5           0
     3       13           2
     3       42           1
     3       47           0
     3       50           0
     3       57           3
     3       75           2
     3       82           4
     3       84           0
     3       86           2
     4        2           4
     4        3           1
     4        7           3
     4       14           0
     4       24           3
     4       66           0
     4       80           4
     4       94           3
     4       98           2
     4       99           2
     5       15           4
     5       26           3
     5       27           3
     5       40           4
     5       74           2
     5       77           3
     5       92           1
     5       94           2
     5       95           0
     5       98           4
     6       22           1
     6       35           4
     6       64           3
     6       70           4
     6       72           4
     6       77           3
     6       83           3
     6       87           3
     6       88           4
     6       94           4
     7        4           4
     7       34           0
     7       35           3
     7       44           0
     7       60           1
     7       63           2
     7       65           0
     7       68           4
     7       71           2
     7       72           3
     8        4           0
     8        5           0
     8        9           3
     8       11           1
     8       21           3
     8       43           0
     8       54           4
     8       72           2
     8       84           0
     8       89           3
     9       12           2
     9       17           4
     9       31           1
     9       32           4
     9       84           1
     9       86           4
     9       87           4
     9       88           0
     9       98           2
     9       99           2
    10       12           1
    10       14           4
    10       16           0
    10       20           4
    10       60           2
    10       70           0
    10       86           3
    10       92           1
    10       93           1
    10       95           3
    11        3           1
    11       12           3
    11       26           2
    11       32           0
    11       33           0
    11       44           3
    11       49           4
    11       50           3
    11       64           2
    11       69           2
    12       18           1
    12       34           4
    12       36           1
    12       71           0
    12       74           3
    12       77           4
    12       81           4
    12       86           0
    12       90           0
    12       94           0
    13       21           3
    13       39           3
    13       65           0
    13       67           3
    13       68           2
    13       85           4
    13       87           3
    13       89           0
    13       91           0
    13       96           2
    14        3           1
    14       33           3
    14       52           4
    14       53           1
    14       70           1
    14       75           4
    14       76           3
    14       80           0
    14       94           1
    14       96           4
    15       10           0
    15       32           2
    15       41           2
    15       46           2
    15       49           2
    15       76           0
    15       84           4
    15       85           3
    15       94           0
    15       95           4
    16        6           3
    16       27           2
    16       31           4
    16       46           4
    16       52           4
    16       69           2
    16       76           0
    16       80           2
    16       85           2
    16       90           0
    17       12           2
    17       18           0
    17       19           4
    17       21           2
    17       24           1
    17       29           1
    17       30           4
    17       37           3
    17       44           3
    17       56           1
    18       15           3
    18       31           0
    18       45           2
    18       47           0
    18       48           0
    18       56           0
    18       58           4
    18       73           1
    18       80           3
    18       95           2
    19        8           3
    19       11           0
    19       17           0
    19       25           0
    19       57           3
    19       59           3
    19       70           1
    19       72           3
    19       76           2
    19       81           0
    20       11           2
    20       23           0
    20       25           0
    20       26           2
    20       36           2
    20       44           4
    20       50           0
    20       55           2
    20       62           3
    20       63           1
    21        6           3
    21       38           4
    21       39           2
    21       41           3
    21       43           3
    21       44           4
    21       52           3
    21       58           4
    21       64           0
    21       65           1
    22       15           1
    22       20           1
    22       40           2
    22       45           3
    22       62           4
    22       69           3
    22       71           3
    22       79           3
    22       82           1
    22       91           2
    23        9           3
    23       14           3
    23       28           3
    23       72           4
    23       73           2
    23       84           4
    23       85           4
    23       87           0
    23       89           1
    23       99           0
    24        5           4
    24        6           2
    24       12           0
    24       33           4
    24       38           3
    24       42           1
    24       48           0
    24       52           2
    24       58           4
    24       82           1
    25       20           1
    25       23           2
    25       58           1
    25       63           1
    25       81           0
    25       88           3
    25       90           2
    25       92           1
    25       93           4
    25      100           2
    26       14           4
    26       19           4
    26       42           3
    26       57           1
    26       69           0
    26       79           1
    26       91           1
    26       93           0
    26       98           1
    26       99           1
    27       15           0
    27       29           4
    27       51           3
    27       54           0
    27       68           4
    27       69           1
    27       72           3
    27       73           4
    27       87           4
    27       88           2
    28        1           3
    28        2           4
    28        4           0
    28       13           1
    28       19           1
    28       24           1
    28       27           1
    28       29           1
    28       45           3
    28       60           3
    29       25           3
    29       44           0
    29       52           4
    29       74           2
    29       77           2
    29       83           0
    29       86           1
    29       89           1
    29       99           0
    29      100           0
    30       22           3
    30       23           2
    30       35           3
    30       41           0
    30       47           4
    30       51           0
    30       77           2
    30       83           1
    30       90           4
    30       92           2
    31        4           2
    31       33           2
    31       34           0
    31       36           4
    31       41           4
    31       42           3
    31       47           1
    31       57           0
    31       60           0
    31       66           1
    32        2           3
    32       11           1
    32       22           0
    32       24           1
    32       31           1
    32       39           3
    32       43           0
    32       58           2
    32       59           0
    32       88           4
    33        1           3
    33        2           2
    33        6           0
    33        9           1
    33       22           3
    33       28           2
    33       47           2
    33       51           3
    33       54           3
    33       56           1
    34        7           0
    34       11           0
    34       13           0
    34       17           1
    34       22           4
    34       28           1
    34       32           0
    34       60           0
    34       96           2
    34       97           1
    35        3           3
    35        8           1
    35       10           4
    35       20           2
    35       30           2
    35       31           3
    35       45           1
    35       54           0
    35       60           3
    35       68           2
    36       13           3
    36       14           2
    36       18           4
    36       21           0
    36       25           1
    36       29           1
    36       37           4
    36       49           0
    36       75           2
    36       79           2
    37       12           4
    37       35           2
    37       40           3
    37       53           1
    37       55           1
    37       56           0
    37       62           3
    37       70           2
    37       74           0
    37       78           0
    38        1           1
    38       10           3
    38       27           2
    38       35           1
    38       55           0
    38       59           2
    38       80           2
    38       82           2
    38       83           1
    38       98           4
    39        2           1
    39        7           0
    39       20           1
    39       32           1
    39       46           0
    39       62           0
    39       77           3
    39       82           2
    39       83           2
    39       91           4
    40       20           2
    40       22           1
    40       29           4
    40       37           3
    40       39           4
    40       41           4
    40       42           4
    40       45           1
    40       62           4
    40       73           2
    41        3           2
    41        8           3
    41        9           1
    41       25           4
    41       30           1
    41       51           0
    41       53           3
    41       67           1
    41       71           2
    41       74           3
    42        2           0
    42       22           4
    42       30           0
    42       37           1
    42       51           0
    42       57           4
    42       62           4
    42       66           1
    42       71           1
    42       77           2
    43        9           3
    43       11           4
    43       33           3
    43       67           1
    43       69           4
    43       71           3
    43       78           1
    43       80           2
    43       81           2
    43       93           1
    44       15           4
    44       30           0
    44       35           0
    44       37           4
    44       51           1
    44       55           2
    44       59           3
    44       65           4
    44       67           3
    44       78           4
    45        6           0
    45       18           3
    45       23           3
    45       40           3
    45       53           1
    45       59           2
    45       61           3
    45       86           3
    45       89           4
    45       99           4
    46        6           0
    46        7           2
    46       11           4
    46       19           0
    46       26           1
    46       28           3
    46       31           2
    46       37           2
    46       51           4
    46       54           2
    47        3           2
    47        4           4
    47       23           4
    47       81           3
    47       85           0
    47       90           0
    47       97           1
    47       98           3
    47       99           4
    47      100           4
    48       16           2
    48       35           3
    48       36           2
    48       42           2
    48       57           2
    48       58           3
    48       60           1
    48       63           3
    48       64           4
    48       67           0
    49       28           3
    49       39           4
    49       48           0
    49       63           4
    49       65           0
    49       72           0
    49       79           4
    49       80           3
    49       92           4
    49       93           2
    50       10           4
    50       15           2
    50       16           0
    50       17           2
    50       40           2
    50       43           3
    50       53           2
    50       61           0
    50       66           4
    50       68           1
    51        8           3
    51       17           3
    51       21           3
    51       34           2
    51       45           4
    51       55           4
    51       71           4
    51       75           3
    51       78           1
    51       83           4
    52        1           0
    52       21           2
    52       28           3
    52       33           1
    52       46           4
    52       50           4
    52       54           3
    52       67           4
    52       71           3
    52       87           4
    53        1           3
    53       14           4
    53       30           2
    53       38           0
    53       55           3
    53       92           1
    53       94           4
    53       96           3
    53       97           0
    53      100           0
    54        1           1
    54        9           2
    54       23           2
    54       26           3
    54       33           4
    54       41           4
    54       43           1
    54       65           4
    54       75           2
    54       79           2
    55       60           2
    55       75           1
    55       85           0
    55       90           4
    55       95           1
    55       96           0
    55       97           4
    55       98           1
    55       99           2
    55      100           3
    56        1           3
    56        5           3
    56       10           0
    56       27           3
    56       46           2
    56       50           4
    56       67           1
    56       70           4
    56       94           1
    56      100           1
    57        1           3
    57        3           1
    57        9           2
    57       10           1
    57       62           2
    57       64           3
    57       70           0
    57       75           0
    57       81           4
    57       90           4
    58        4           1
    58       24           4
    58       32           4
    58       45           1
    58       77           3
    58       87           0
    58       90           2
    58       94           3
    58       96           2
    58      100           2
    59       15           1
    59       24           3
    59       25           1
    59       42           4
    59       47           0
    59       78           1
    59       81           3
    59       83           3
    59       86           0
    59       97           1
    60        2           4
    60        8           2
    60       43           0
    60       48           1
    60       64           1
    60       68           4
    60       90           2
    60       98           4
    60       99           3
    60      100           3
    61        5           2
    61       27           1
    61       32           3
    61       34           3
    61       36           1
    61       38           2
    61       39           0
    61       51           0
    61       53           3
    61       55           0
    62       16           3
    62       20           4
    62       29           2
    62       48           4
    62       49           2
    62       53           4
    62       75           1
    62       80           4
    62       84           3
    62       91           2
    63       21           4
    63       33           4
    63       36           3
    63       40           3
    63       42           4
    63       45           3
    63       54           2
    63       73           4
    63       74           4
    63       75           0
    64        5           2
    64       23           0
    64       27           4
    64       38           1
    64       43           1
    64       49           3
    64       57           3
    64       59           3
    64       84           2
    64       87           2
    65        5           2
    65       22           1
    65       38           4
    65       43           0
    65       48           3
    65       59           2
    65       73           4
    65       74           3
    65       77           4
    65       78           4
    66        8           1
    66       23           2
    66       36           2
    66       41           1
    66       47           4
    66       49           1
    66       54           4
    66       61           3
    66       76           1
    66       78           0
    67       17           2
    67       27           4
    67       32           3
    67       36           4
    67       44           4
    67       51           0
    67       55           1
    67       66           1
    67       68           1
    67       71           0
    68       10           0
    68       18           4
    68       19           4
    68       34           1
    68       39           1
    68       57           1
    68       78           4
    68       90           4
    68       91           4
    68       94           1
    69        4           1
    69       18           4
    69       31           0
    69       35           1
    69       44           4
    69       49           4
    69       61           1
    69       79           2
    69       85           2
    69       89           1
    70       33           3
    70       43           1
    70       76           4
    70       77           4
    70       83           4
    70       86           4
    70       88           1
    70       89           4
    70       95           3
    70       97           2
    71        2           4
    71       12           4
    71       14           1
    71       16           2
    71       29           2
    71       31           1
    71       61           0
    71       62           3
    71       82           3
    71       84           2
    72        8           3
    72       10           0
    72       16           1
    72       23           0
    72       56           3
    72       65           0
    72       66           3
    72       74           3
    72       86           1
    72       93           1
    73       13           1
    73       15           2
    73       20           4
    73       35           4
    73       46           0
    73       59           4
    73       60           0
    73       78           3
    73       80           0
    73       82           3
    74       35           0
    74       43           3
    74       49           2
    74       50           0
    74       79           3
    74       83           1
    74       87           0
    74       92           4
    74       96           0
    74       98           3
    75        7           0
    75       20           4
    75       37           0
    75       47           4
    75       50           2
    75       62           0
    75       65           4
    75       72           2
    75       82           1
    75       84           3
    76        4           0
    76       11           1
    76       15           0
    76       16           4
    76       19           2
    76       24           2
    76       29           3
    76       61           1
    76       68           2
    76       71           0
    77        4           4
    77       17           1
    77       19           3
    77       24           3
    77       28           3
    77       59           0
    77       61           1
    77       62           4
    77       63           1
    77       64           4
    78        7           3
    78       14           3
    78       21           1
    78       37           1
    78       58           4
    78       81           1
    78       85           3
    78       89           2
    78       91           0
    78       96           4
    79       23           4
    79       32           2
    79       46           4
    79       50           3
    79       79           4
    79       82           4
    79       86           0
    79       88           0
    79       91           3
    79       96           4
    80       12           4
    80       18           1
    80       21           3
    80       41           1
    80       54           1
    80       55           2
    80       59           0
    80       67           3
    80       70           3
    80       76           3
    81        2           4
    81        3           1
    81        5           0
    81        7           1
    81        9           4
    81       14           3
    81       17           0
    81       26           0
    81       28           3
    81       38           3
    82        6           2
    82       29           0
    82       30           0
    82       32           4
    82       40           0
    82       42           0
    82       48           0
    82       49           2
    82       56           0
    82       76           2
    83        1           0
    83       30           4
    83       34           2
    83       53           3
    83       56           4
    83       79           1
    83       81           4
    83       93           4
    83       95           1
    83       97           3
    84        2           2
    84       22           0
    84       29           3
    84       34           0
    84       37           1
    84       38           4
    84       46           3
    84       50           0
    84       57           3
    84       63           4
    85        3           3
    85        6           2
    85       10           2
    85       13           3
    85       25           2
    85       74           1
    85       91           2
    85       93           1
    85       95           2
    85       97           4
    86       17           1
    86       21           2
    86       25           4
    86       27           4
    86       38           1
    86       39           0
    86       40           2
    86       41           2
    86       47           4
    86       66           0
    87        8           4
    87       13           1
    87       16           4
    87       25           3
    87       26           3
    87       33           3
    87       56           3
    87       76           4
    87       83           1
    87       84           0
    88        7           1
    88        9           1
    88       17           4
    88       24           4
    88       52           3
    88       66           1
    88       69           2
    88       92           0
    88       97           2
    88      100           1
    89       22           4
    89       36           2
    89       40           0
    89       42           4
    89       48           3
    89       55           4
    89       61           0
    89       65           3
    89       70           4
    89       81           3
    90        3           3
    90       14           2
    90       16           4
    90       31           0
    90       45           0
    90       52           4
    90       53           1
    90       56           1
    90       63           3
    90       65           4
    91       11           0
    91       26           0
    91       27           2
    91       28           0
    91       34           4
    91       37           4
    91       57           1
    91       64           1
    91       68           1
    91       70           4
    92       13           2
    92       26           2
    92       39           0
    92       46           2
    92       51           3
    92       56           4
    92       80           0
    92       85           4
    92       87           2
    92       88           3
    93        9           0
    93       13           3
    93       16           0
    93       19           2
    93       44           2
    93       52           1
    93       63           2
    93       66           1
    93       72           4
    93       73           4
    94        7           3
    94       18           0
    94       30           1
    94       34           3
    94       52           4
    94       54           0
    94       64           4
    94       68           3
    94       73           4
    94       76           3
    95        1           3
    95       18           3
    95       49           3
    95       50           4
    95       61           4
    95       85           2
    95       88           1
    95       91           2
    95       92           1
    95       95           1
    96        8           4
    96       12           3
    96       41           2
    96       44           1
    96       63           2
    96       75           1
    96       82           4
    96       89           2
    96       92           0
    96       93           1
    97       19           3
    97       25           0
    97       26           0
    97       31           1
    97       40           0
    97       61           0
    97       64           4
    97       69           4
    97       72           1
    97       74           0
    98        5           3
    98        6           4
    98       20           1
    98       24           1
    98       30           3
    98       45           2
    98       58           0
    98       60           0
    98       67           1
    98       89           4
    99        5           4
    99       13           0
    99       19           1
    99       46           3
    99       47           2
    99       48           0
    99       52           4
    99       67           0
    99       69           1
    99       73           1
   100        4           1
   100        8           1
   100       10           2
   100       12           0
   100       15           2
   100       18           2
   100       36           2
   100       48           3
   100       58           3
   100       73           2
